12636
101001001001001001001000110100
20 25 8 2 8 5 0 24 2 17 24 20 8 20 2 14 14 17 5 11 17 0 5 2 5 8 2 5 5 24 5 25 8 11 20 20 24 25 27 14 0 8 24 0 5 14 27 20 25 8 27 14 14 5 20 20 14 11 0 14 0 5 20 11 11 11 5 0 17 24 20 8 0 17 5 8 24 20 14 24 20 0 20 17 2 17 17 0 20 5 2 24 0 25 0 11 2 2 27 14 8 17 14 25 2 25 0 11 8 8 14 2 2 11 25 27 24 24 5 24 5 2 11 20 14 11 5 24 0 25 0 17 24 25 8 17 11 25 8 17 0 14 20 14 8 11 25 5 2 5 